594108
66,59,101,78,90,99,86,41,95,85,55,94,45,32,27,24,2,46,35,47,23,106,18,67,9,50,19,58,13,56,74,87,15,30,22,6,8,4,52,40,26,80,103,82,49,7,38,17,51,63,88,21,83,20,28,31,100,75,43,3,57,12,102,98,5,42,68,60,105,73,89,34,79,71,37,62,77,104,11,54,53,91,92,72,25,64,69,14,65,44,1,10,29,84,48,36,39,33,76,93,97,70,61,81,96,16